Route #1: 13 19 30 45 52 61 74 79 93 98 99 94 80 68 59 53 62 69 81 82 87 100 88 95 83 75 70 63 47 54 64 71 89 84 90 96 97 91 85 76 65 66 72 73 86 92 77 78 67 60 51 39 29 28 27 38 44 50 58 49 57 56 43 37 23 36 22 26 35 42 55 48 41 34 25 24 33 32 46 40 31 20 8 21 9 1 2 10 14 3 4 5 15 11 6 16 12 17 18 7
Cost 46941
